p cnf 430 1488
-191 45 0
-191 -173 0
-191 95 0
-191 -154 0
-191 15 0
191 -45 173 -95 154 -15 0
-192 -126 0
-192 -18 0
-192 -113 0
-192 -49 0
-192 -40 0
192 126 18 113 49 40 0
-193 -66 0
-193 -108 0
-193 -103 0
-193 101 0
-193 9 0
193 66 108 103 -101 -9 0
-194 125 0
-194 -185 0
-194 5 0
-194 177 0
-194 -119 0
194 -125 185 -5 -177 119 0
-195 49 0
-195 73 0
-195 170 0
-195 -30 0
-195 -119 0
195 -49 -73 -170 30 119 0
191 192 193 194 195 0
-196 -12 0
-196 -73 0
-196 54 0
-196 -124 0
-196 -134 0
196 12 73 -54 124 134 0
-197 -42 0
-197 -21 0
-197 144 0
-197 89 0
-197 186 0
197 42 21 -144 -89 -186 0
-198 -163 0
-198 156 0
-198 112 0
-198 83 0
-198 -154 0
198 163 -156 -112 -83 154 0
-199 -151 0
-199 -12 0
-199 9 0
-199 51 0
-199 82 0
199 151 12 -9 -51 -82 0
-200 68 0
-200 70 0
-200 -84 0
-200 -56 0
-200 -77 0
200 -68 -70 84 56 77 0
196 197 198 199 200 0
-201 177 0
-201 155 0
-201 116 0
-201 143 0
-201 75 0
201 -177 -155 -116 -143 -75 0
-202 72 0
-202 1 0
-202 185 0
-202 162 0
-202 66 0
202 -72 -1 -185 -162 -66 0
-203 160 0
-203 -161 0
-203 86 0
-203 -11 0
-203 -63 0
203 -160 161 -86 11 63 0
-204 96 0
-204 22 0
-204 158 0
-204 -80 0
-204 64 0
204 -96 -22 -158 80 -64 0
-205 -80 0
-205 -13 0
-205 87 0
-205 139 0
-205 158 0
205 80 13 -87 -139 -158 0
201 202 203 204 205 0
-206 175 0
-206 16 0
-206 176 0
-206 -46 0
-206 86 0
206 -175 -16 -176 46 -86 0
-207 88 0
-207 78 0
-207 56 0
-207 -183 0
-207 -151 0
207 -88 -78 -56 183 151 0
-208 72 0
-208 47 0
-208 184 0
-208 18 0
-208 -2 0
208 -72 -47 -184 -18 2 0
-209 -167 0
-209 -75 0
-209 -178 0
-209 -133 0
-209 184 0
209 167 75 178 133 -184 0
-210 -78 0
-210 -107 0
-210 -97 0
-210 100 0
-210 -36 0
210 78 107 97 -100 36 0
206 207 208 209 210 0
-211 119 0
-211 -107 0
-211 7 0
-211 71 0
-211 -84 0
211 -119 107 -7 -71 84 0
-212 -180 0
-212 -53 0
-212 148 0
-212 57 0
-212 189 0
212 180 53 -148 -57 -189 0
-213 89 0
-213 183 0
-213 -26 0
-213 73 0
-213 128 0
213 -89 -183 26 -73 -128 0
-214 33 0
-214 -50 0
-214 -186 0
-214 19 0
-214 120 0
214 -33 50 186 -19 -120 0
-215 91 0
-215 -63 0
-215 74 0
-215 -79 0
-215 94 0
215 -91 63 -74 79 -94 0
211 212 213 214 215 0
-216 -131 0
-216 -46 0
-216 147 0
-216 -45 0
-216 188 0
216 131 46 -147 45 -188 0
-217 189 0
-217 -176 0
-217 187 0
-217 -127 0
-217 -113 0
217 -189 176 -187 127 113 0
-218 -5 0
-218 -46 0
-218 49 0
-218 -87 0
-218 -10 0
218 5 46 -49 87 10 0
-219 -81 0
-219 136 0
-219 80 0
-219 96 0
-219 -127 0
219 81 -136 -80 -96 127 0
-220 -52 0
-220 -8 0
-220 -90 0
-220 47 0
-220 131 0
220 52 8 90 -47 -131 0
216 217 218 219 220 0
-221 -75 0
-221 -97 0
-221 -136 0
-221 -2 0
-221 -70 0
221 75 97 136 2 70 0
-222 -45 0
-222 -176 0
-222 190 0
-222 99 0
-222 26 0
222 45 176 -190 -99 -26 0
-223 -151 0
-223 -107 0
-223 -189 0
-223 139 0
-223 148 0
223 151 107 189 -139 -148 0
-224 181 0
-224 -190 0
-224 -122 0
-224 -145 0
-224 164 0
224 -181 190 122 145 -164 0
-225 -76 0
-225 4 0
-225 -22 0
-225 82 0
-225 112 0
225 76 -4 22 -82 -112 0
221 222 223 224 225 0
-226 -44 0
-226 -84 0
-226 -188 0
-226 165 0
-226 -169 0
226 44 84 188 -165 169 0
-227 79 0
-227 91 0
-227 -64 0
-227 -115 0
-227 -11 0
227 -79 -91 64 115 11 0
-228 -95 0
-228 -101 0
-228 49 0
-228 133 0
-228 85 0
228 95 101 -49 -133 -85 0
-229 172 0
-229 -43 0
-229 44 0
-229 109 0
-229 134 0
229 -172 43 -44 -109 -134 0
-230 36 0
-230 -88 0
-230 162 0
-230 53 0
-230 -59 0
230 -36 88 -162 -53 59 0
226 227 228 229 230 0
-231 66 0
-231 -150 0
-231 82 0
-231 146 0
-231 71 0
231 -66 150 -82 -146 -71 0
-232 123 0
-232 160 0
-232 -97 0
-232 52 0
-232 -169 0
232 -123 -160 97 -52 169 0
-233 17 0
-233 -64 0
-233 -132 0
-233 131 0
-233 112 0
233 -17 64 132 -131 -112 0
-234 -131 0
-234 15 0
-234 -187 0
-234 104 0
-234 149 0
234 131 -15 187 -104 -149 0
-235 131 0
-235 2 0
-235 128 0
-235 -159 0
-235 -7 0
235 -131 -2 -128 159 7 0
231 232 233 234 235 0
-236 -23 0
-236 94 0
-236 151 0
-236 -70 0
-236 -36 0
236 23 -94 -151 70 36 0
-237 15 0
-237 133 0
-237 30 0
-237 -101 0
-237 99 0
237 -15 -133 -30 101 -99 0
-238 -120 0
-238 161 0
-238 84 0
-238 46 0
-238 -134 0
238 120 -161 -84 -46 134 0
-239 63 0
-239 89 0
-239 -33 0
-239 97 0
-239 -161 0
239 -63 -89 33 -97 161 0
-240 95 0
-240 30 0
-240 -74 0
-240 154 0
-240 -55 0
240 -95 -30 74 -154 55 0
236 237 238 239 240 0
-241 42 0
-241 175 0
-241 149 0
-241 -179 0
-241 -185 0
241 -42 -175 -149 179 185 0
-242 174 0
-242 88 0
-242 -68 0
-242 86 0
-242 179 0
242 -174 -88 68 -86 -179 0
-243 167 0
-243 -122 0
-243 -21 0
-243 65 0
-243 164 0
243 -167 122 21 -65 -164 0
-244 -98 0
-244 45 0
-244 -62 0
-244 -8 0
-244 -168 0
244 98 -45 62 8 168 0
-245 -142 0
-245 64 0
-245 76 0
-245 -177 0
-245 37 0
245 142 -64 -76 177 -37 0
241 242 243 244 245 0
-246 -153 0
-246 105 0
-246 -22 0
-246 -158 0
-246 -101 0
246 153 -105 22 158 101 0
-247 -25 0
-247 43 0
-247 45 0
-247 -37 0
-247 -146 0
247 25 -43 -45 37 146 0
-248 180 0
-248 75 0
-248 -16 0
-248 -137 0
-248 -9 0
248 -180 -75 16 137 9 0
-249 -126 0
-249 107 0
-249 19 0
-249 2 0
-249 -51 0
249 126 -107 -19 -2 51 0
-250 -118 0
-250 -111 0
-250 -95 0
-250 -115 0
-250 161 0
250 118 111 95 115 -161 0
246 247 248 249 250 0
-251 88 0
-251 -57 0
-251 8 0
-251 124 0
-251 -135 0
251 -88 57 -8 -124 135 0
-252 154 0
-252 -48 0
-252 -90 0
-252 -118 0
-252 15 0
252 -154 48 90 118 -15 0
-253 9 0
-253 4 0
-253 102 0
-253 21 0
-253 127 0
253 -9 -4 -102 -21 -127 0
-254 -63 0
-254 165 0
-254 64 0
-254 -156 0
-254 -148 0
254 63 -165 -64 156 148 0
-255 137 0
-255 -177 0
-255 6 0
-255 159 0
-255 131 0
255 -137 177 -6 -159 -131 0
251 252 253 254 255 0
-256 188 0
-256 112 0
-256 -177 0
-256 59 0
-256 -32 0
256 -188 -112 177 -59 32 0
-257 149 0
-257 -151 0
-257 9 0
-257 -33 0
-257 81 0
257 -149 151 -9 33 -81 0
-258 40 0
-258 -132 0
-258 -80 0
-258 -102 0
-258 66 0
258 -40 132 80 102 -66 0
-259 48 0
-259 50 0
-259 -23 0
-259 -181 0
-259 33 0
259 -48 -50 23 181 -33 0
-260 -119 0
-260 -98 0
-260 108 0
-260 138 0
-260 -174 0
260 119 98 -108 -138 174 0
256 257 258 259 260 0
-261 142 0
-261 112 0
-261 -32 0
-261 -79 0
-261 134 0
261 -142 -112 32 79 -134 0
-262 -170 0
-262 98 0
-262 184 0
-262 124 0
-262 130 0
262 170 -98 -184 -124 -130 0
-263 188 0
-263 171 0
-263 109 0
-263 83 0
-263 -87 0
263 -188 -171 -109 -83 87 0
-264 128 0
-264 136 0
-264 -180 0
-264 157 0
-264 61 0
264 -128 -136 180 -157 -61 0
-265 176 0
-265 133 0
-265 34 0
-265 182 0
-265 -171 0
265 -176 -133 -34 -182 171 0
261 262 263 264 265 0
-266 -34 0
-266 -169 0
-266 182 0
-266 -94 0
-266 114 0
266 34 169 -182 94 -114 0
-267 15 0
-267 -98 0
-267 -51 0
-267 84 0
-267 -166 0
267 -15 98 51 -84 166 0
-268 -108 0
-268 -107 0
-268 -114 0
-268 -36 0
-268 67 0
268 108 107 114 36 -67 0
-269 73 0
-269 122 0
-269 121 0
-269 131 0
-269 -171 0
269 -73 -122 -121 -131 171 0
-270 -64 0
-270 -175 0
-270 -97 0
-270 89 0
-270 111 0
270 64 175 97 -89 -111 0
266 267 268 269 270 0
-271 132 0
-271 -60 0
-271 -124 0
-271 -177 0
-271 -44 0
271 -132 60 124 177 44 0
-272 135 0
-272 71 0
-272 169 0
-272 -104 0
-272 138 0
272 -135 -71 -169 104 -138 0
-273 -36 0
-273 -67 0
-273 177 0
-273 140 0
-273 134 0
273 36 67 -177 -140 -134 0
-274 -37 0
-274 -19 0
-274 94 0
-274 -137 0
-274 -85 0
274 37 19 -94 137 85 0
-275 -97 0
-275 55 0
-275 3 0
-275 -7 0
-275 -116 0
275 97 -55 -3 7 116 0
271 272 273 274 275 0
-276 104 0
-276 140 0
-276 93 0
-276 4 0
-276 80 0
276 -104 -140 -93 -4 -80 0
-277 -35 0
-277 -129 0
-277 -134 0
-277 102 0
-277 155 0
277 35 129 134 -102 -155 0
-278 4 0
-278 -179 0
-278 -36 0
-278 -16 0
-278 130 0
278 -4 179 36 16 -130 0
-279 130 0
-279 181 0
-279 25 0
-279 76 0
-279 108 0
279 -130 -181 -25 -76 -108 0
-280 80 0
-280 -79 0
-280 165 0
-280 -175 0
-280 -151 0
280 -80 79 -165 175 151 0
276 277 278 279 280 0
-281 158 0
-281 20 0
-281 -178 0
-281 88 0
-281 -103 0
281 -158 -20 178 -88 103 0
-282 -132 0
-282 136 0
-282 -71 0
-282 -145 0
-282 44 0
282 132 -136 71 145 -44 0
-283 180 0
-283 101 0
-283 19 0
-283 -137 0
-283 -52 0
283 -180 -101 -19 137 52 0
-284 44 0
-284 153 0
-284 99 0
-284 50 0
-284 38 0
284 -44 -153 -99 -50 -38 0
-285 89 0
-285 95 0
-285 -81 0
-285 4 0
-285 -177 0
285 -89 -95 81 -4 177 0
281 282 283 284 285 0
-286 -186 0
-286 132 0
-286 -77 0
-286 95 0
-286 -53 0
286 186 -132 77 -95 53 0
-287 4 0
-287 -125 0
-287 -63 0
-287 94 0
-287 -113 0
287 -4 125 63 -94 113 0
-288 110 0
-288 181 0
-288 113 0
-288 166 0
-288 -169 0
288 -110 -181 -113 -166 169 0
-289 -123 0
-289 -111 0
-289 -175 0
-289 114 0
-289 125 0
289 123 111 175 -114 -125 0
-290 170 0
-290 -103 0
-290 47 0
-290 188 0
-290 -150 0
290 -170 103 -47 -188 150 0
286 287 288 289 290 0
-291 -141 0
-291 70 0
-291 87 0
-291 -99 0
-291 -72 0
291 141 -70 -87 99 72 0
-292 143 0
-292 -162 0
-292 -95 0
-292 58 0
-292 42 0
292 -143 162 95 -58 -42 0
-293 -4 0
-293 -1 0
-293 -138 0
-293 148 0
-293 184 0
293 4 1 138 -148 -184 0
-294 56 0
-294 -149 0
-294 6 0
-294 -55 0
-294 -156 0
294 -56 149 -6 55 156 0
-295 -119 0
-295 -180 0
-295 146 0
-295 45 0
-295 5 0
295 119 180 -146 -45 -5 0
291 292 293 294 295 0
-296 77 0
-296 5 0
-296 43 0
-296 -11 0
-296 33 0
296 -77 -5 -43 11 -33 0
-297 34 0
-297 170 0
-297 114 0
-297 28 0
-297 53 0
297 -34 -170 -114 -28 -53 0
-298 39 0
-298 86 0
-298 95 0
-298 139 0
-298 -10 0
298 -39 -86 -95 -139 10 0
-299 -124 0
-299 14 0
-299 -8 0
-299 113 0
-299 54 0
299 124 -14 8 -113 -54 0
-300 -167 0
-300 -61 0
-300 129 0
-300 69 0
-300 112 0
300 167 61 -129 -69 -112 0
296 297 298 299 300 0
-301 -29 0
-301 -3 0
-301 117 0
-301 159 0
-301 -81 0
301 29 3 -117 -159 81 0
-302 -4 0
-302 -53 0
-302 22 0
-302 -25 0
-302 -161 0
302 4 53 -22 25 161 0
-303 25 0
-303 167 0
-303 -169 0
-303 -33 0
-303 -29 0
303 -25 -167 169 33 29 0
-304 -156 0
-304 -48 0
-304 162 0
-304 -115 0
-304 112 0
304 156 48 -162 115 -112 0
-305 -110 0
-305 181 0
-305 185 0
-305 177 0
-305 -126 0
305 110 -181 -185 -177 126 0
301 302 303 304 305 0
-306 13 0
-306 46 0
-306 174 0
-306 -161 0
-306 -149 0
306 -13 -46 -174 161 149 0
-307 148 0
-307 -3 0
-307 -137 0
-307 177 0
-307 -14 0
307 -148 3 137 -177 14 0
-308 163 0
-308 106 0
-308 35 0
-308 -86 0
-308 -148 0
308 -163 -106 -35 86 148 0
-309 -97 0
-309 -70 0
-309 -81 0
-309 108 0
-309 -174 0
309 97 70 81 -108 174 0
-310 -186 0
-310 -154 0
-310 -2 0
-310 96 0
-310 -26 0
310 186 154 2 -96 26 0
306 307 308 309 310 0
-311 85 0
-311 -143 0
-311 188 0
-311 -6 0
-311 -180 0
311 -85 143 -188 6 180 0
-312 -110 0
-312 60 0
-312 59 0
-312 -175 0
-312 129 0
312 110 -60 -59 175 -129 0
-313 139 0
-313 -10 0
-313 -34 0
-313 113 0
-313 18 0
313 -139 10 34 -113 -18 0
-314 33 0
-314 -185 0
-314 -95 0
-314 -30 0
-314 169 0
314 -33 185 95 30 -169 0
-315 -182 0
-315 100 0
-315 103 0
-315 22 0
-315 121 0
315 182 -100 -103 -22 -121 0
311 312 313 314 315 0
-316 103 0
-316 90 0
-316 27 0
-316 107 0
-316 25 0
316 -103 -90 -27 -107 -25 0
-317 55 0
-317 -52 0
-317 153 0
-317 -119 0
-317 -89 0
317 -55 52 -153 119 89 0
-318 -73 0
-318 -106 0
-318 64 0
-318 -140 0
-318 -146 0
318 73 106 -64 140 146 0
-319 165 0
-319 30 0
-319 -108 0
-319 -109 0
-319 -21 0
319 -165 -30 108 109 21 0
-320 118 0
-320 82 0
-320 25 0
-320 -111 0
-320 16 0
320 -118 -82 -25 111 -16 0
316 317 318 319 320 0
-321 -117 0
-321 169 0
-321 47 0
-321 48 0
-321 7 0
321 117 -169 -47 -48 -7 0
-322 140 0
-322 178 0
-322 -17 0
-322 100 0
-322 29 0
322 -140 -178 17 -100 -29 0
-323 189 0
-323 1 0
-323 -87 0
-323 -48 0
-323 101 0
323 -189 -1 87 48 -101 0
-324 -24 0
-324 117 0
-324 -133 0
-324 85 0
-324 -164 0
324 24 -117 133 -85 164 0
-325 -101 0
-325 -11 0
-325 121 0
-325 -187 0
-325 28 0
325 101 11 -121 187 -28 0
321 322 323 324 325 0
-326 -112 0
-326 30 0
-326 -166 0
-326 -63 0
-326 -137 0
326 112 -30 166 63 137 0
-327 -10 0
-327 -19 0
-327 -39 0
-327 -172 0
-327 123 0
327 10 19 39 172 -123 0
-328 -42 0
-328 44 0
-328 109 0
-328 -162 0
-328 -2 0
328 42 -44 -109 162 2 0
-329 108 0
-329 -82 0
-329 -187 0
-329 130 0
-329 155 0
329 -108 82 187 -130 -155 0
-330 -182 0
-330 -114 0
-330 -185 0
-330 -159 0
-330 94 0
330 182 114 185 159 -94 0
326 327 328 329 330 0
-331 -184 0
-331 178 0
-331 -39 0
-331 94 0
-331 -179 0
331 184 -178 39 -94 179 0
-332 -138 0
-332 -44 0
-332 140 0
-332 83 0
-332 114 0
332 138 44 -140 -83 -114 0
-333 -130 0
-333 -89 0
-333 95 0
-333 190 0
-333 -113 0
333 130 89 -95 -190 113 0
-334 90 0
-334 -9 0
-334 -95 0
-334 85 0
-334 -65 0
334 -90 9 95 -85 65 0
-335 143 0
-335 118 0
-335 -7 0
-335 -68 0
-335 18 0
335 -143 -118 7 68 -18 0
331 332 333 334 335 0
-336 -184 0
-336 -40 0
-336 -18 0
-336 151 0
-336 37 0
336 184 40 18 -151 -37 0
-337 -9 0
-337 143 0
-337 47 0
-337 106 0
-337 -3 0
337 9 -143 -47 -106 3 0
-338 21 0
-338 53 0
-338 -105 0
-338 132 0
-338 133 0
338 -21 -53 105 -132 -133 0
-339 -8 0
-339 39 0
-339 -66 0
-339 76 0
-339 44 0
339 8 -39 66 -76 -44 0
-340 -117 0
-340 161 0
-340 131 0
-340 -103 0
-340 -175 0
340 117 -161 -131 103 175 0
336 337 338 339 340 0
-341 -156 0
-341 -161 0
-341 -138 0
-341 90 0
-341 116 0
341 156 161 138 -90 -116 0
-342 -76 0
-342 184 0
-342 -129 0
-342 114 0
-342 134 0
342 76 -184 129 -114 -134 0
-343 114 0
-343 101 0
-343 -68 0
-343 163 0
-343 -79 0
343 -114 -101 68 -163 79 0
-344 -132 0
-344 -74 0
-344 -65 0
-344 160 0
-344 -53 0
344 132 74 65 -160 53 0
-345 59 0
-345 65 0
-345 4 0
-345 127 0
-345 -3 0
345 -59 -65 -4 -127 3 0
341 342 343 344 345 0
-346 -171 0
-346 -55 0
-346 14 0
-346 -13 0
-346 -98 0
346 171 55 -14 13 98 0
-347 -48 0
-347 -37 0
-347 69 0
-347 159 0
-347 82 0
347 48 37 -69 -159 -82 0
-348 -188 0
-348 -185 0
-348 -96 0
-348 -86 0
-348 121 0
348 188 185 96 86 -121 0
-349 76 0
-349 -33 0
-349 -108 0
-349 -136 0
-349 -167 0
349 -76 33 108 136 167 0
-350 27 0
-350 -139 0
-350 -94 0
-350 164 0
-350 115 0
350 -27 139 94 -164 -115 0
346 347 348 349 350 0
-351 36 0
-351 -76 0
-351 86 0
-351 149 0
-351 -102 0
351 -36 76 -86 -149 102 0
-352 -93 0
-352 112 0
-352 30 0
-352 -83 0
-352 -72 0
352 93 -112 -30 83 72 0
-353 -164 0
-353 142 0
-353 -57 0
-353 -101 0
-353 66 0
353 164 -142 57 101 -66 0
-354 58 0
-354 -33 0
-354 -143 0
-354 -188 0
-354 49 0
354 -58 33 143 188 -49 0
-355 92 0
-355 149 0
-355 -89 0
-355 -152 0
-355 87 0
355 -92 -149 89 152 -87 0
351 352 353 354 355 0
-356 -82 0
-356 12 0
-356 -99 0
-356 119 0
-356 -13 0
356 82 -12 99 -119 13 0
-357 -59 0
-357 -183 0
-357 -160 0
-357 83 0
-357 -103 0
357 59 183 160 -83 103 0
-358 155 0
-358 51 0
-358 19 0
-358 146 0
-358 30 0
358 -155 -51 -19 -146 -30 0
-359 -165 0
-359 -155 0
-359 -69 0
-359 -82 0
-359 81 0
359 165 155 69 82 -81 0
-360 -117 0
-360 -105 0
-360 -17 0
-360 49 0
-360 121 0
360 117 105 17 -49 -121 0
356 357 358 359 360 0
-361 -155 0
-361 -59 0
-361 106 0
-361 107 0
-361 -161 0
361 155 59 -106 -107 161 0
-362 -103 0
-362 -3 0
-362 -72 0
-362 -171 0
-362 68 0
362 103 3 72 171 -68 0
-363 -146 0
-363 39 0
-363 18 0
-363 -140 0
-363 15 0
363 146 -39 -18 140 -15 0
-364 123 0
-364 -40 0
-364 -101 0
-364 149 0
-364 -117 0
364 -123 40 101 -149 117 0
-365 18 0
-365 -105 0
-365 17 0
-365 84 0
-365 55 0
365 -18 105 -17 -84 -55 0
361 362 363 364 365 0
-366 60 0
-366 119 0
-366 99 0
-366 -150 0
-366 112 0
366 -60 -119 -99 150 -112 0
-367 128 0
-367 132 0
-367 -103 0
-367 -32 0
-367 -182 0
367 -128 -132 103 32 182 0
-368 -38 0
-368 34 0
-368 -94 0
-368 164 0
-368 1 0
368 38 -34 94 -164 -1 0
-369 -179 0
-369 35 0
-369 17 0
-369 -6 0
-369 -80 0
369 179 -35 -17 6 80 0
-370 172 0
-370 -24 0
-370 181 0
-370 -14 0
-370 -131 0
370 -172 24 -181 14 131 0
366 367 368 369 370 0
-371 96 0
-371 18 0
-371 95 0
-371 -109 0
-371 -15 0
371 -96 -18 -95 109 15 0
-372 147 0
-372 120 0
-372 101 0
-372 104 0
-372 92 0
372 -147 -120 -101 -104 -92 0
-373 3 0
-373 -37 0
-373 146 0
-373 -8 0
-373 174 0
373 -3 37 -146 8 -174 0
-374 -32 0
-374 -87 0
-374 9 0
-374 76 0
-374 -107 0
374 32 87 -9 -76 107 0
-375 163 0
-375 152 0
-375 42 0
-375 92 0
-375 106 0
375 -163 -152 -42 -92 -106 0
371 372 373 374 375 0
-376 140 0
-376 173 0
-376 105 0
-376 121 0
-376 29 0
376 -140 -173 -105 -121 -29 0
-377 43 0
-377 86 0
-377 25 0
-377 -38 0
-377 -123 0
377 -43 -86 -25 38 123 0
-378 -52 0
-378 156 0
-378 160 0
-378 32 0
-378 -122 0
378 52 -156 -160 -32 122 0
-379 -190 0
-379 97 0
-379 25 0
-379 -168 0
-379 176 0
379 190 -97 -25 168 -176 0
-380 48 0
-380 -120 0
-380 -68 0
-380 -9 0
-380 -58 0
380 -48 120 68 9 58 0
376 377 378 379 380 0
-381 130 0
-381 181 0
-381 -35 0
-381 94 0
-381 4 0
381 -130 -181 35 -94 -4 0
-382 93 0
-382 2 0
-382 -124 0
-382 -146 0
-382 -139 0
382 -93 -2 124 146 139 0
-383 -82 0
-383 -72 0
-383 -27 0
-383 152 0
-383 -95 0
383 82 72 27 -152 95 0
-384 121 0
-384 -13 0
-384 -169 0
-384 122 0
-384 -186 0
384 -121 13 169 -122 186 0
-385 171 0
-385 -95 0
-385 158 0
-385 14 0
-385 134 0
385 -171 95 -158 -14 -134 0
381 382 383 384 385 0
-386 -165 0
-386 -88 0
-386 -3 0
-386 -47 0
-386 -139 0
386 165 88 3 47 139 0
-387 160 0
-387 143 0
-387 149 0
-387 -122 0
-387 -100 0
387 -160 -143 -149 122 100 0
-388 -21 0
-388 84 0
-388 29 0
-388 40 0
-388 154 0
388 21 -84 -29 -40 -154 0
-389 -128 0
-389 140 0
-389 -33 0
-389 107 0
-389 -75 0
389 128 -140 33 -107 75 0
-390 -115 0
-390 -58 0
-390 88 0
-390 132 0
-390 156 0
390 115 58 -88 -132 -156 0
386 387 388 389 390 0
-391 -95 0
-391 -19 0
-391 1 0
-391 12 0
-391 56 0
391 95 19 -1 -12 -56 0
-392 -151 0
-392 -142 0
-392 89 0
-392 -92 0
-392 -56 0
392 151 142 -89 92 56 0
-393 137 0
-393 56 0
-393 -110 0
-393 27 0
-393 -57 0
393 -137 -56 110 -27 57 0
-394 108 0
-394 80 0
-394 172 0
-394 14 0
-394 -130 0
394 -108 -80 -172 -14 130 0
-395 149 0
-395 -130 0
-395 -120 0
-395 -47 0
-395 68 0
395 -149 130 120 47 -68 0
391 392 393 394 395 0
-396 -42 0
-396 -66 0
-396 -36 0
-396 93 0
-396 -25 0
396 42 66 36 -93 25 0
-397 58 0
-397 141 0
-397 -154 0
-397 -45 0
-397 -39 0
397 -58 -141 154 45 39 0
-398 -58 0
-398 52 0
-398 -36 0
-398 -177 0
-398 -72 0
398 58 -52 36 177 72 0
-399 16 0
-399 -163 0
-399 -138 0
-399 173 0
-399 -186 0
399 -16 163 138 -173 186 0
-400 123 0
-400 126 0
-400 115 0
-400 -97 0
-400 -17 0
400 -123 -126 -115 97 17 0
396 397 398 399 400 0
-401 -129 0
-401 -2 0
-401 138 0
-401 85 0
-401 102 0
401 129 2 -138 -85 -102 0
-402 18 0
-402 -142 0
-402 -152 0
-402 36 0
-402 66 0
402 -18 142 152 -36 -66 0
-403 151 0
-403 137 0
-403 127 0
-403 -31 0
-403 -82 0
403 -151 -137 -127 31 82 0
-404 71 0
-404 -160 0
-404 -6 0
-404 146 0
-404 -9 0
404 -71 160 6 -146 9 0
-405 -14 0
-405 67 0
-405 30 0
-405 -21 0
-405 -144 0
405 14 -67 -30 21 144 0
401 402 403 404 405 0
-406 156 0
-406 132 0
-406 25 0
-406 53 0
-406 -141 0
406 -156 -132 -25 -53 141 0
-407 106 0
-407 -148 0
-407 8 0
-407 -135 0
-407 -88 0
407 -106 148 -8 135 88 0
-408 112 0
-408 73 0
-408 94 0
-408 -8 0
-408 -86 0
408 -112 -73 -94 8 86 0
-409 6 0
-409 57 0
-409 86 0
-409 87 0
-409 27 0
409 -6 -57 -86 -87 -27 0
-410 117 0
-410 97 0
-410 107 0
-410 115 0
-410 -52 0
410 -117 -97 -107 -115 52 0
406 407 408 409 410 0
-411 88 0
-411 146 0
-411 134 0
-411 -171 0
-411 150 0
411 -88 -146 -134 171 -150 0
-412 88 0
-412 -105 0
-412 -116 0
-412 -82 0
-412 117 0
412 -88 105 116 82 -117 0
-413 -94 0
-413 -140 0
-413 -121 0
-413 78 0
-413 -105 0
413 94 140 121 -78 105 0
-414 144 0
-414 -168 0
-414 139 0
-414 164 0
-414 36 0
414 -144 168 -139 -164 -36 0
-415 179 0
-415 100 0
-415 -108 0
-415 -131 0
-415 88 0
415 -179 -100 108 131 -88 0
411 412 413 414 415 0
-416 -139 0
-416 18 0
-416 152 0
-416 -176 0
-416 -110 0
416 139 -18 -152 176 110 0
-417 -78 0
-417 -182 0
-417 -18 0
-417 101 0
-417 -161 0
417 78 182 18 -101 161 0
-418 -74 0
-418 -117 0
-418 -122 0
-418 -107 0
-418 -81 0
418 74 117 122 107 81 0
-419 34 0
-419 84 0
-419 -97 0
-419 175 0
-419 54 0
419 -34 -84 97 -175 -54 0
-420 152 0
-420 -50 0
-420 -32 0
-420 -127 0
-420 -6 0
420 -152 50 32 127 6 0
416 417 418 419 420 0
-421 72 0
-421 144 0
-421 -169 0
-421 101 0
-421 110 0
421 -72 -144 169 -101 -110 0
-422 -11 0
-422 47 0
-422 90 0
-422 104 0
-422 -114 0
422 11 -47 -90 -104 114 0
-423 -21 0
-423 -122 0
-423 176 0
-423 -181 0
-423 25 0
423 21 122 -176 181 -25 0
-424 -86 0
-424 118 0
-424 25 0
-424 32 0
-424 -163 0
424 86 -118 -25 -32 163 0
-425 -158 0
-425 -88 0
-425 -179 0
-425 -70 0
-425 -24 0
425 158 88 179 70 24 0
421 422 423 424 425 0
-426 159 0
-426 -138 0
-426 160 0
-426 59 0
-426 91 0
426 -159 138 -160 -59 -91 0
-427 182 0
-427 75 0
-427 -157 0
-427 188 0
-427 -6 0
427 -182 -75 157 -188 6 0
-428 130 0
-428 85 0
-428 112 0
-428 -137 0
-428 -119 0
428 -130 -85 -112 137 119 0
-429 23 0
-429 37 0
-429 -72 0
-429 -77 0
-429 111 0
429 -23 -37 72 77 -111 0
-430 125 0
-430 161 0
-430 -65 0
-430 -112 0
-430 61 0
430 -125 -161 65 112 -61 0
426 427 428 429 430 0
